GeneratedTests/Random_8/Random_8_20.tsp
NAME: Random_8_20
TYPE: TSP
DIMENSION: 8
EDGE_WEIGHT_TYPE: EUC_2D
NODE_COORD_SECTION
1 4.373955 11.316334
2 15.592807 23.478447
3 13.373487 15.253178
4 10.817516 5.2240934
5 12.873451 9.083149
6 12.587395 8.2255535
7 18.788616 12.678334
8 5.0741816 17.08904
EOF
