GeneratedTests/Random_8/Random_8_20.txt
NAME: Random_8_20
TYPE: TSP
DIMENSION: 8
EDGE_WEIGHT_TYPE: EUC_2D
NODE_COORD_SECTION
1 16.196835 5.8614464
2 11.164572 19.61053
3 5.6804323 5.1026974
4 4.9969826 3.3634186
5 20.038534 20.144659
6 7.7435503 17.132519
7 12.142118 21.316648
8 19.470114 22.409563
EOF
